33D32945 STP File, STP Format Version 1.0

SECTION Comment
Name    "i160-142"
Creator "Cees Duin"
Remark  "Incidence graph"
END

SECTION Graph
Nodes 160
Edges 2544
E 1 5 308
E 1 18 204
E 1 30 196
E 1 36 190
E 1 47 191
E 1 48 195
E 1 52 196
E 1 57 197
E 1 70 198
E 1 71 199
E 1 82 200
E 1 86 210
E 1 87 191
E 1 93 197
E 1 96 200
E 1 105 192
E 1 106 206
E 1 109 204
E 1 113 203
E 1 116 205
E 1 119 203
E 1 121 202
E 1 122 202
E 1 124 193
E 1 125 193
E 1 133 197
E 1 137 203
E 1 149 205
E 2 3 296
E 2 4 297
E 2 5 302
E 2 6 295
E 2 13 197
E 2 18 192
E 2 22 199
E 2 28 204
E 2 32 197
E 2 34 195
E 2 41 195
E 2 43 200
E 2 49 199
E 2 51 194
E 2 52 197
E 2 57 191
E 2 67 203
E 2 71 200
E 2 72 194
E 2 77 200
E 2 79 200
E 2 80 196
E 2 83 208
E 2 87 199
E 2 92 205
E 2 100 213
E 2 108 196
E 2 112 193
E 2 115 188
E 2 134 196
E 2 143 190
E 2 156 207
E 3 4 298
E 3 9 296
E 3 24 192
E 3 25 195
E 3 26 211
E 3 27 204
E 3 34 204
E 3 36 193
E 3 37 195
E 3 53 193
E 3 56 196
E 3 59 203
E 3 63 207
E 3 64 199
E 3 70 198
E 3 71 193
E 3 73 204
E 3 77 193
E 3 79 203
E 3 80 199
E 3 90 208
E 3 97 209
E 3 100 200
E 3 101 201
E 3 110 204
E 3 111 201
E 3 114 203
E 3 115 209
E 3 118 199
E 3 124 201
E 3 131 197
E 3 137 195
E 3 141 204
E 3 148 207
E 3 153 204
E 3 159 199
E 4 5 308
E 4 6 298
E 4 8 292
E 4 9 303
E 4 14 201
E 4 18 204
E 4 22 207
E 4 23 204
E 4 33 200
E 4 51 191
E 4 57 203
E 4 58 198
E 4 60 193
E 4 68 207
E 4 84 204
E 4 89 198
E 4 105 201
E 4 106 194
E 4 113 190
E 4 115 196
E 4 122 198
E 4 127 199
E 4 128 198
E 4 131 202
E 4 142 196
E 4 144 197
E 4 150 190
E 4 159 196
E 5 6 298
E 5 12 296
E 5 13 199
E 5 17 204
E 5 21 200
E 5 22 199
E 5 24 199
E 5 29 206
E 5 32 198
E 5 37 190
E 5 46 191
E 5 50 200
E 5 55 195
E 5 60 202
E 5 67 185
E 5 69 196
E 5 70 196
E 5 73 198
E 5 86 205
E 5 87 190
E 5 91 202
E 5 93 205
E 5 94 195
E 5 98 196
E 5 105 211
E 5 109 202
E 5 111 193
E 5 123 204
E 5 125 195
E 5 128 203
E 5 129 209
E 5 130 204
E 5 132 193
E 5 134 208
E 5 135 194
E 5 142 203
E 5 144 195
E 5 152 198
E 5 153 198
E 5 160 193
E 6 7 296
E 6 11 300
E 6 13 193
E 6 16 191
E 6 22 191
E 6 37 197
E 6 48 208
E 6 57 203
E 6 58 200
E 6 62 203
E 6 67 196
E 6 71 202
E 6 76 196
E 6 78 190
E 6 80 203
E 6 81 197
E 6 91 198
E 6 93 199
E 6 100 194
E 6 101 206
E 6 102 199
E 6 104 202
E 6 106 192
E 6 124 197
E 6 125 196
E 6 134 212
E 6 140 203
E 6 151 191
E 6 154 204
E 6 155 189
E 6 157 193
E 6 159 201
E 7 11 305
E 7 12 290
E 7 18 202
E 7 21 198
E 7 23 195
E 7 29 201
E 7 31 194
E 7 42 200
E 7 47 195
E 7 53 206
E 7 58 196
E 7 61 201
E 7 62 209
E 7 75 200
E 7 77 198
E 7 84 193
E 7 86 197
E 7 87 197
E 7 90 195
E 7 91 199
E 7 95 208
E 7 104 196
E 7 111 199
E 7 112 207
E 7 113 199
E 7 124 202
E 7 129 208
E 7 134 200
E 7 135 202
E 7 145 196
E 7 147 204
E 7 149 194
E 7 151 200
E 8 16 202
E 8 20 199
E 8 21 194
E 8 22 199
E 8 38 194
E 8 39 208
E 8 53 202
E 8 56 200
E 8 67 189
E 8 75 206
E 8 82 201
E 8 87 192
E 8 90 200
E 8 99 212
E 8 112 209
E 8 116 197
E 8 118 208
E 8 123 201
E 8 130 206
E 8 135 208
E 8 136 200
E 8 144 197
E 8 147 196
E 8 150 198
E 8 154 204
E 8 158 205
E 9 12 300
E 9 13 206
E 9 23 194
E 9 29 203
E 9 32 199
E 9 36 207
E 9 39 198
E 9 40 199
E 9 42 200
E 9 44 204
E 9 47 199
E 9 49 202
E 9 56 205
E 9 57 199
E 9 58 199
E 9 62 190
E 9 67 200
E 9 69 204
E 9 70 202
E 9 72 202
E 9 79 198
E 9 85 203
E 9 90 205
E 9 93 204
E 9 101 204
E 9 107 202
E 9 108 199
E 9 113 202
E 9 115 202
E 9 120 204
E 9 124 192
E 9 131 196
E 9 138 200
E 9 140 201
E 9 148 205
E 9 150 205
E 9 151 203
E 9 157 199
E 10 11 309
E 10 15 196
E 10 16 204
E 10 19 205
E 10 20 192
E 10 21 189
E 10 25 195
E 10 29 190
E 10 30 205
E 10 33 204
E 10 36 193
E 10 44 197
E 10 47 202
E 10 48 194
E 10 52 190
E 10 55 195
E 10 61 197
E 10 67 190
E 10 68 211
E 10 78 200
E 10 82 199
E 10 90 205
E 10 91 199
E 10 96 211
E 10 98 204
E 10 102 194
E 10 107 198
E 10 132 207
E 10 133 197
E 10 134 193
E 10 142 202
E 10 146 203
E 10 159 198
E 10 160 212
E 11 18 200
E 11 20 197
E 11 24 201
E 11 30 201
E 11 37 198
E 11 38 197
E 11 44 206
E 11 45 207
E 11 50 195
E 11 56 201
E 11 59 208
E 11 63 197
E 11 74 191
E 11 83 195
E 11 94 204
E 11 95 192
E 11 104 198
E 11 108 191
E 11 112 196
E 11 115 197
E 11 128 193
E 11 129 204
E 11 133 201
E 11 138 197
E 11 140 186
E 11 144 210
E 11 149 206
E 11 154 197
E 12 15 204
E 12 17 211
E 12 27 195
E 12 28 193
E 12 33 196
E 12 34 199
E 12 37 198
E 12 41 189
E 12 45 202
E 12 48 197
E 12 50 197
E 12 52 202
E 12 60 198
E 12 64 205
E 12 72 195
E 12 73 194
E 12 77 191
E 12 78 203
E 12 81 193
E 12 83 200
E 12 85 192
E 12 97 195
E 12 99 198
E 12 102 199
E 12 103 195
E 12 104 193
E 12 105 200
E 12 109 198
E 12 112 202
E 12 116 197
E 12 118 193
E 12 119 199
E 12 125 195
E 12 128 201
E 12 133 201
E 12 134 197
E 12 142 187
E 12 146 203
E 12 148 199
E 12 151 198
E 13 20 90
E 13 21 99
E 13 29 98
E 13 33 101
E 13 36 98
E 13 43 96
E 13 46 100
E 13 59 99
E 13 63 98
E 13 64 99
E 13 90 101
E 13 109 101
E 13 111 108
E 13 125 93
E 13 143 103
E 13 150 95
E 13 152 98
E 13 154 96
E 14 24 100
E 14 36 97
E 14 43 94
E 14 46 95
E 14 56 98
E 14 61 100
E 14 62 107
E 14 66 103
E 14 67 98
E 14 74 99
E 14 77 100
E 14 89 102
E 14 90 95
E 14 91 91
E 14 92 100
E 14 94 96
E 14 96 102
E 14 105 100
E 14 109 95
E 14 117 100
E 14 122 97
E 14 126 91
E 14 129 97
E 14 132 102
E 14 139 101
E 14 140 110
E 14 147 97
E 14 153 95
E 14 154 93
E 15 16 85
E 15 25 96
E 15 27 106
E 15 31 105
E 15 32 106
E 15 35 98
E 15 37 105
E 15 38 98
E 15 41 97
E 15 46 95
E 15 47 98
E 15 48 102
E 15 51 95
E 15 60 108
E 15 62 95
E 15 66 101
E 15 71 99
E 15 72 93
E 15 79 99
E 15 80 93
E 15 86 91
E 15 87 101
E 15 90 97
E 15 93 108
E 15 107 94
E 15 108 99
E 15 115 89
E 15 117 102
E 15 126 98
E 15 127 105
E 15 128 95
E 15 132 97
E 15 145 100
E 15 152 96
E 15 154 100
E 15 155 104
E 15 157 101
E 16 17 102
E 16 36 96
E 16 37 106
E 16 45 96
E 16 72 92
E 16 75 98
E 16 79 105
E 16 81 101
E 16 85 105
E 16 92 102
E 16 96 101
E 16 109 98
E 16 113 96
E 16 121 99
E 16 137 101
E 16 142 91
E 16 145 107
E 16 155 104
E 16 157 96
E 17 20 87
E 17 24 97
E 17 33 104
E 17 37 99
E 17 39 105
E 17 40 104
E 17 52 90
E 17 53 101
E 17 69 100
E 17 77 107
E 17 79 104
E 17 81 99
E 17 84 94
E 17 87 102
E 17 89 94
E 17 93 109
E 17 105 108
E 17 113 96
E 17 116 102
E 17 119 98
E 17 121 98
E 17 122 102
E 17 126 92
E 17 127 106
E 17 132 90
E 17 145 100
E 17 155 104
E 17 157 97
E 18 22 93
E 18 23 100
E 18 33 95
E 18 39 91
E 18 40 104
E 18 46 109
E 18 52 100
E 18 53 96
E 18 54 97
E 18 65 100
E 18 66 101
E 18 71 98
E 18 76 99
E 18 80 100
E 18 82 99
E 18 85 101
E 18 87 104
E 18 98 104
E 18 99 105
E 18 101 103
E 18 109 92
E 18 124 105
E 18 128 102
E 18 129 94
E 18 130 96
E 18 141 91
E 18 143 103
E 18 148 103
E 18 155 111
E 18 158 93
E 19 27 101
E 19 38 102
E 19 42 100
E 19 43 91
E 19 51 97
E 19 53 96
E 19 56 92
E 19 62 105
E 19 69 106
E 19 74 103
E 19 94 109
E 19 97 91
E 19 99 105
E 19 100 101
E 19 102 99
E 19 104 100
E 19 107 100
E 19 113 97
E 19 117 101
E 19 118 97
E 19 122 95
E 19 123 92
E 19 124 107
E 19 125 107
E 19 127 98
E 19 131 104
E 19 139 95
E 19 141 94
E 19 142 95
E 19 143 95
E 19 145 93
E 19 153 100
E 19 155 91
E 20 26 107
E 20 27 101
E 20 32 100
E 20 33 101
E 20 39 104
E 20 43 98
E 20 49 97
E 20 51 100
E 20 52 106
E 20 55 99
E 20 65 96
E 20 70 107
E 20 74 100
E 20 76 100
E 20 88 102
E 20 93 99
E 20 99 98
E 20 102 100
E 20 103 97
E 20 104 96
E 20 105 97
E 20 106 99
E 20 107 100
E 20 122 102
E 20 128 106
E 20 134 110
E 20 137 102
E 20 138 104
E 20 143 106
E 20 144 103
E 20 149 109
E 20 151 97
E 20 155 98
E 21 24 107
E 21 26 104
E 21 28 91
E 21 30 102
E 21 35 103
E 21 36 97
E 21 43 102
E 21 48 101
E 21 49 99
E 21 52 97
E 21 53 92
E 21 55 101
E 21 56 92
E 21 58 107
E 21 60 107
E 21 62 101
E 21 66 109
E 21 74 100
E 21 83 105
E 21 84 101
E 21 89 92
E 21 94 101
E 21 99 92
E 21 101 93
E 21 106 101
E 21 110 91
E 21 111 99
E 21 112 96
E 21 119 99
E 21 120 96
E 21 126 97
E 21 128 96
E 21 151 95
E 21 152 89
E 22 27 95
E 22 42 91
E 22 43 100
E 22 44 102
E 22 46 95
E 22 47 93
E 22 49 99
E 22 52 98
E 22 55 90
E 22 57 105
E 22 66 97
E 22 70 94
E 22 73 95
E 22 74 95
E 22 78 98
E 22 81 102
E 22 85 104
E 22 90 105
E 22 98 95
E 22 110 97
E 22 118 95
E 22 119 100
E 22 122 97
E 22 129 99
E 22 140 91
E 22 143 101
E 22 146 91
E 22 151 93
E 22 156 97
E 23 25 110
E 23 27 92
E 23 28 101
E 23 33 101
E 23 38 91
E 23 46 97
E 23 57 95
E 23 58 102
E 23 60 103
E 23 63 97
E 23 70 105
E 23 72 103
E 23 80 100
E 23 93 105
E 23 96 96
E 23 103 107
E 23 107 97
E 23 110 89
E 23 112 103
E 23 120 105
E 23 124 102
E 23 129 96
E 23 134 99
E 23 137 104
E 23 142 92
E 23 144 99
E 23 148 100
E 23 151 103
E 23 154 98
E 23 157 93
E 24 27 100
E 24 28 106
E 24 36 103
E 24 40 98
E 24 43 100
E 24 46 98
E 24 48 103
E 24 49 92
E 24 54 107
E 24 55 103
E 24 63 103
E 24 64 97
E 24 69 100
E 24 70 99
E 24 72 105
E 24 73 98
E 24 79 103
E 24 87 96
E 24 103 104
E 24 111 95
E 24 116 100
E 24 123 100
E 24 133 100
E 24 140 98
E 24 141 102
E 24 147 100
E 24 151 94
E 24 155 99
E 24 156 95
E 24 158 93
E 25 32 102
E 25 39 100
E 25 43 99
E 25 49 100
E 25 65 106
E 25 66 103
E 25 68 103
E 25 69 101
E 25 73 108
E 25 74 110
E 25 76 99
E 25 80 99
E 25 89 102
E 25 93 108
E 25 96 109
E 25 100 109
E 25 102 97
E 25 104 109
E 25 107 95
E 25 114 104
E 25 117 102
E 25 119 96
E 25 121 98
E 25 136 97
E 25 150 94
E 25 155 104
E 26 45 110
E 26 52 100
E 26 66 91
E 26 70 109
E 26 74 93
E 26 84 103
E 26 93 108
E 26 94 103
E 26 97 98
E 26 104 98
E 26 105 102
E 26 114 95
E 26 117 101
E 26 119 96
E 26 127 99
E 26 140 105
E 26 144 97
E 26 152 104
E 27 29 101
E 27 35 95
E 27 46 99
E 27 47 106
E 27 54 107
E 27 72 101
E 27 74 97
E 27 80 106
E 27 82 102
E 27 102 107
E 27 103 99
E 27 107 97
E 27 110 101
E 27 112 92
E 27 120 102
E 27 122 96
E 27 139 102
E 27 145 101
E 27 146 99
E 27 147 100
E 27 151 97
E 27 155 109
E 27 158 105
E 28 29 95
E 28 30 96
E 28 35 108
E 28 38 99
E 28 47 105
E 28 48 93
E 28 58 97
E 28 68 97
E 28 77 97
E 28 78 99
E 28 82 100
E 28 93 109
E 28 101 105
E 28 105 99
E 28 107 98
E 28 119 104
E 28 130 100
E 28 135 100
E 28 139 98
E 28 140 97
E 28 147 94
E 29 30 103
E 29 31 102
E 29 38 102
E 29 39 101
E 29 46 101
E 29 49 103
E 29 50 106
E 29 53 100
E 29 54 107
E 29 59 91
E 29 68 101
E 29 71 105
E 29 81 100
E 29 84 90
E 29 86 96
E 29 97 97
E 29 116 99
E 29 117 98
E 29 118 102
E 29 125 94
E 29 139 97
E 29 155 102
E 29 157 102
E 30 32 97
E 30 33 89
E 30 37 102
E 30 42 104
E 30 48 99
E 30 51 86
E 30 52 95
E 30 53 94
E 30 61 94
E 30 62 96
E 30 63 100
E 30 74 87
E 30 76 95
E 30 79 87
E 30 80 101
E 30 84 102
E 30 90 89
E 30 93 101
E 30 98 98
E 30 100 99
E 30 103 96
E 30 108 88
E 30 113 104
E 30 118 93
E 30 119 102
E 30 137 86
E 30 140 101
E 30 142 98
E 30 148 98
E 30 151 93
E 30 153 105
E 30 154 96
E 31 34 96
E 31 37 97
E 31 38 96
E 31 41 101
E 31 45 107
E 31 46 90
E 31 49 100
E 31 55 100
E 31 60 94
E 31 61 101
E 31 65 102
E 31 66 97
E 31 69 96
E 31 77 107
E 31 84 101
E 31 86 98
E 31 89 106
E 31 90 102
E 31 94 100
E 31 97 104
E 31 98 98
E 31 105 107
E 31 111 94
E 31 113 106
E 31 120 88
E 31 126 96
E 31 132 108
E 31 137 94
E 31 160 99
E 32 38 93
E 32 42 101
E 32 52 101
E 32 62 108
E 32 63 101
E 32 81 102
E 32 85 98
E 32 103 96
E 32 104 94
E 32 110 99
E 32 111 97
E 32 116 104
E 32 117 92
E 32 127 98
E 32 132 100
E 32 134 104
E 32 136 94
E 32 140 88
E 32 151 87
E 32 154 94
E 33 34 98
E 33 35 105
E 33 37 106
E 33 38 104
E 33 40 92
E 33 47 97
E 33 68 92
E 33 70 97
E 33 79 98
E 33 93 99
E 33 94 100
E 33 105 108
E 33 112 94
E 33 126 103
E 33 134 103
E 33 135 95
E 33 139 100
E 33 142 105
E 33 143 102
E 33 146 99
E 33 147 102
E 34 58 102
E 34 59 97
E 34 61 103
E 34 64 96
E 34 67 100
E 34 74 112
E 34 75 98
E 34 77 104
E 34 83 102
E 34 86 100
E 34 100 107
E 34 101 98
E 34 105 103
E 34 108 102
E 34 109 98
E 34 114 90
E 34 137 100
E 34 158 101
E 35 36 95
E 35 40 98
E 35 46 98
E 35 48 97
E 35 51 108
E 35 54 98
E 35 59 94
E 35 62 108
E 35 64 100
E 35 69 93
E 35 70 101
E 35 73 102
E 35 84 96
E 35 85 100
E 35 88 96
E 35 99 101
E 35 110 96
E 35 111 102
E 35 117 97
E 35 131 93
E 35 136 100
E 35 139 107
E 36 39 98
E 36 42 96
E 36 47 95
E 36 49 98
E 36 57 96
E 36 60 97
E 36 61 100
E 36 64 105
E 36 65 95
E 36 69 101
E 36 75 89
E 36 85 105
E 36 110 94
E 36 116 91
E 36 118 98
E 36 130 93
E 36 138 103
E 36 148 94
E 37 39 98
E 37 43 100
E 37 45 95
E 37 54 101
E 37 57 104
E 37 64 99
E 37 66 103
E 37 73 97
E 37 83 107
E 37 87 100
E 37 89 96
E 37 90 99
E 37 94 94
E 37 98 87
E 37 106 96
E 37 107 108
E 37 127 97
E 37 150 95
E 38 43 101
E 38 48 106
E 38 49 97
E 38 56 90
E 38 67 107
E 38 90 97
E 38 91 96
E 38 99 96
E 38 102 97
E 38 104 101
E 38 110 104
E 38 115 100
E 38 117 108
E 38 120 98
E 38 122 101
E 38 123 102
E 38 127 102
E 38 137 96
E 38 139 92
E 38 142 85
E 38 144 97
E 38 154 97
E 38 155 102
E 38 157 92
E 39 43 101
E 39 45 102
E 39 52 92
E 39 59 104
E 39 60 105
E 39 61 98
E 39 63 101
E 39 74 95
E 39 75 90
E 39 78 100
E 39 85 104
E 39 89 99
E 39 91 108
E 39 94 110
E 39 103 99
E 39 105 97
E 39 109 90
E 39 116 93
E 39 119 100
E 39 121 102
E 39 122 94
E 39 124 101
E 39 133 95
E 39 137 104
E 39 138 94
E 39 145 98
E 39 149 107
E 39 160 104
E 40 48 90
E 40 52 86
E 40 53 102
E 40 58 101
E 40 64 105
E 40 76 94
E 40 81 95
E 40 105 87
E 40 107 99
E 40 123 99
E 40 128 109
E 40 146 105
E 40 153 99
E 40 154 95
E 40 155 95
E 40 158 98
E 41 50 100
E 41 62 101
E 41 67 97
E 41 70 97
E 41 77 92
E 41 83 101
E 41 92 99
E 41 93 104
E 41 94 101
E 41 100 102
E 41 111 93
E 41 113 105
E 41 117 97
E 41 129 98
E 41 131 105
E 41 132 103
E 41 135 100
E 41 141 95
E 41 154 94
E 41 156 99
E 42 44 104
E 42 47 110
E 42 48 100
E 42 50 104
E 42 57 96
E 42 58 102
E 42 59 98
E 42 79 94
E 42 81 103
E 42 82 97
E 42 88 96
E 42 90 98
E 42 96 96
E 42 108 96
E 42 109 93
E 42 114 100
E 42 118 92
E 42 122 96
E 42 126 90
E 42 127 101
E 42 144 93
E 42 151 101
E 42 152 96
E 42 155 95
E 42 159 93
E 43 46 104
E 43 65 96
E 43 66 87
E 43 68 100
E 43 70 101
E 43 73 103
E 43 74 92
E 43 77 96
E 43 82 102
E 43 86 99
E 43 89 108
E 43 92 100
E 43 95 96
E 43 106 94
E 43 112 99
E 43 116 93
E 43 131 102
E 43 136 104
E 43 139 93
E 43 144 108
E 43 145 98
E 43 146 83
E 44 48 90
E 44 51 97
E 44 54 96
E 44 59 95
E 44 65 104
E 44 75 101
E 44 82 108
E 44 85 95
E 44 86 99
E 44 92 105
E 44 100 103
E 44 101 101
E 44 105 108
E 44 109 95
E 44 116 98
E 44 119 98
E 44 122 96
E 44 123 98
E 44 131 105
E 44 141 100
E 44 142 96
E 44 146 98
E 44 155 107
E 44 156 99
E 44 159 100
E 44 160 106
E 45 46 104
E 45 56 104
E 45 57 94
E 45 61 102
E 45 76 96
E 45 86 89
E 45 104 107
E 45 108 102
E 45 119 112
E 45 120 92
E 45 123 89
E 45 134 103
E 45 135 99
E 45 139 101
E 45 143 97
E 45 144 106
E 45 146 101
E 45 158 90
E 46 47 101
E 46 48 96
E 46 49 106
E 46 63 92
E 46 65 97
E 46 66 107
E 46 67 98
E 46 68 95
E 46 88 98
E 46 91 94
E 46 92 97
E 46 100 102
E 46 102 107
E 46 104 101
E 46 113 96
E 46 120 101
E 46 122 92
E 46 125 103
E 46 126 94
E 46 128 96
E 46 140 92
E 46 143 97
E 46 147 111
E 46 148 96
E 47 49 93
E 47 58 99
E 47 59 99
E 47 65 105
E 47 76 107
E 47 82 111
E 47 83 100
E 47 85 104
E 47 87 112
E 47 88 87
E 47 89 104
E 47 91 102
E 47 95 89
E 47 102 96
E 47 110 100
E 47 114 100
E 47 117 107
E 47 118 92
E 47 119 98
E 47 123 91
E 47 126 95
E 47 130 98
E 47 131 96
E 47 135 99
E 47 144 107
E 47 146 97
E 47 148 90
E 48 51 108
E 48 54 98
E 48 59 96
E 48 61 110
E 48 70 105
E 48 75 101
E 48 81 99
E 48 97 88
E 48 102 99
E 48 109 106
E 48 111 102
E 48 113 96
E 48 122 91
E 48 125 91
E 48 136 92
E 48 143 91
E 48 149 85
E 48 153 97
E 48 155 104
E 48 158 95
E 48 160 103
E 49 51 99
E 49 54 98
E 49 55 110
E 49 56 93
E 49 57 99
E 49 64 101
E 49 68 104
E 49 73 98
E 49 82 96
E 49 84 97
E 49 90 100
E 49 97 95
E 49 99 100
E 49 103 101
E 49 106 104
E 49 124 99
E 49 125 97
E 49 134 101
E 49 140 97
E 49 146 107
E 49 151 94
E 49 157 97
E 50 52 100
E 50 58 103
E 50 70 106
E 50 71 104
E 50 73 104
E 50 74 97
E 50 81 98
E 50 90 108
E 50 100 99
E 50 101 104
E 50 105 100
E 50 111 100
E 50 114 98
E 50 116 93
E 50 117 94
E 50 120 107
E 50 124 91
E 50 125 91
E 50 130 94
E 50 135 103
E 50 140 101
E 50 141 101
E 50 147 93
E 50 149 96
E 50 151 104
E 50 156 113
E 50 158 103
E 51 53 84
E 51 55 94
E 51 64 97
E 51 71 92
E 51 72 102
E 51 74 98
E 51 76 89
E 51 81 101
E 51 82 97
E 51 86 94
E 51 89 98
E 51 100 93
E 51 101 97
E 51 105 98
E 51 114 108
E 51 119 98
E 51 123 92
E 51 127 105
E 51 129 105
E 51 135 99
E 51 138 97
E 51 144 97
E 51 147 95
E 51 148 105
E 51 152 95
E 51 156 109
E 51 157 96
E 52 62 100
E 52 65 95
E 52 67 101
E 52 75 93
E 52 86 96
E 52 104 102
E 52 105 108
E 52 110 97
E 52 118 105
E 52 122 99
E 52 124 93
E 52 128 111
E 52 129 96
E 52 140 96
E 52 143 98
E 52 145 100
E 52 151 98
E 53 55 107
E 53 60 100
E 53 61 98
E 53 62 108
E 53 63 97
E 53 64 105
E 53 67 94
E 53 78 97
E 53 83 101
E 53 87 104
E 53 93 98
E 53 95 95
E 53 109 99
E 53 110 97
E 53 112 103
E 53 113 103
E 53 114 98
E 53 124 103
E 53 132 101
E 53 138 102
E 53 154 97
E 54 59 97
E 54 67 102
E 54 73 94
E 54 75 96
E 54 78 105
E 54 81 101
E 54 88 101
E 54 92 94
E 54 99 94
E 54 100 102
E 54 106 101
E 54 109 99
E 54 111 103
E 54 116 111
E 54 121 101
E 54 128 96
E 54 129 97
E 54 132 104
E 54 133 101
E 54 160 104
E 55 59 102
E 55 60 99
E 55 65 108
E 55 67 102
E 55 68 86
E 55 69 108
E 55 70 100
E 55 85 101
E 55 86 99
E 55 90 98
E 55 92 97
E 55 93 98
E 55 112 109
E 55 120 95
E 55 121 101
E 55 132 97
E 55 135 102
E 55 136 105
E 55 142 100
E 55 143 105
E 55 146 97
E 55 152 92
E 55 159 99
E 56 57 104
E 56 59 96
E 56 64 102
E 56 83 97
E 56 89 103
E 56 104 107
E 56 105 105
E 56 108 106
E 56 113 103
E 56 119 91
E 56 120 94
E 56 124 100
E 56 126 96
E 56 128 90
E 56 139 99
E 56 150 99
E 56 152 92
E 56 153 99
E 57 59 99
E 57 62 97
E 57 78 106
E 57 80 104
E 57 82 104
E 57 83 96
E 57 84 90
E 57 85 104
E 57 86 104
E 57 97 94
E 57 107 109
E 57 111 99
E 57 125 99
E 57 135 97
E 57 144 98
E 57 152 93
E 58 63 95
E 58 66 94
E 58 75 103
E 58 79 104
E 58 89 104
E 58 91 96
E 58 93 111
E 58 94 104
E 58 96 97
E 58 97 93
E 58 101 97
E 58 103 92
E 58 105 91
E 58 122 95
E 58 123 99
E 58 126 102
E 58 129 99
E 58 133 98
E 58 136 96
E 58 141 106
E 58 149 102
E 58 151 105
E 58 157 96
E 58 159 90
E 59 60 100
E 59 63 96
E 59 64 101
E 59 65 104
E 59 66 97
E 59 69 96
E 59 73 98
E 59 76 105
E 59 81 100
E 59 86 100
E 59 88 95
E 59 100 94
E 59 104 93
E 59 108 100
E 59 109 100
E 59 111 107
E 59 112 100
E 59 115 98
E 59 120 98
E 59 126 107
E 59 129 97
E 59 133 104
E 59 142 100
E 59 151 99
E 59 152 96
E 59 153 100
E 59 157 105
E 59 160 98
E 60 66 102
E 60 67 99
E 60 68 99
E 60 79 101
E 60 88 99
E 60 89 99
E 60 90 105
E 60 94 99
E 60 96 95
E 60 104 102
E 60 105 99
E 60 110 97
E 60 119 92
E 60 132 100
E 60 135 99
E 60 138 96
E 60 157 101
E 61 67 104
E 61 69 98
E 61 71 100
E 61 72 93
E 61 78 104
E 61 86 91
E 61 87 106
E 61 90 95
E 61 93 98
E 61 94 103
E 61 98 95
E 61 103 104
E 61 108 102
E 61 114 92
E 61 121 97
E 61 124 99
E 61 125 91
E 61 130 100
E 61 134 86
E 61 136 103
E 61 137 95
E 61 141 100
E 61 145 104
E 61 152 103
E 61 157 97
E 62 63 98
E 62 64 101
E 62 68 87
E 62 73 96
E 62 74 96
E 62 76 105
E 62 79 98
E 62 85 95
E 62 90 107
E 62 95 105
E 62 97 100
E 62 102 97
E 62 113 95
E 62 118 98
E 62 124 105
E 62 125 98
E 62 128 99
E 62 132 104
E 62 133 103
E 62 138 105
E 62 139 101
E 62 143 91
E 62 153 100
E 62 154 104
E 62 157 100
E 62 159 100
E 63 64 94
E 63 67 106
E 63 70 99
E 63 82 92
E 63 89 93
E 63 94 101
E 63 96 101
E 63 100 96
E 63 104 97
E 63 105 107
E 63 106 108
E 63 114 96
E 63 118 94
E 63 121 93
E 63 122 102
E 63 125 98
E 63 127 95
E 63 140 104
E 63 152 105
E 63 160 96
E 64 67 96
E 64 74 103
E 64 90 97
E 64 94 96
E 64 105 96
E 64 108 99
E 64 114 102
E 64 116 106
E 64 118 101
E 64 128 105
E 64 129 103
E 64 136 98
E 64 137 93
E 64 140 106
E 64 145 100
E 64 149 97
E 65 93 116
E 65 102 106
E 65 106 89
E 65 107 99
E 65 108 107
E 65 109 97
E 65 110 105
E 65 111 111
E 65 114 95
E 65 130 97
E 65 134 106
E 65 144 100
E 65 153 102
E 65 160 97
E 66 67 106
E 66 68 103
E 66 74 98
E 66 81 106
E 66 91 99
E 66 93 96
E 66 94 102
E 66 95 99
E 66 113 111
E 66 115 101
E 66 116 97
E 66 123 98
E 66 125 91
E 66 126 99
E 66 138 97
E 66 143 104
E 66 145 100
E 66 146 96
E 66 147 96
E 66 150 110
E 66 151 104
E 67 69 105
E 67 72 95
E 67 75 102
E 67 77 97
E 67 79 98
E 67 83 106
E 67 84 93
E 67 86 103
E 67 97 104
E 67 99 99
E 67 106 111
E 67 112 98
E 67 115 105
E 67 118 96
E 67 129 113
E 67 132 99
E 67 137 100
E 67 139 101
E 67 143 95
E 67 151 93
E 67 155 103
E 67 156 100
E 67 159 101
E 68 72 83
E 68 75 102
E 68 76 98
E 68 78 91
E 68 79 96
E 68 92 108
E 68 95 104
E 68 97 94
E 68 98 99
E 68 106 95
E 68 108 92
E 68 110 103
E 68 120 106
E 68 127 97
E 68 136 113
E 68 140 99
E 68 142 100
E 68 145 102
E 68 146 94
E 68 151 98
E 68 155 100
E 68 160 98
E 69 71 94
E 69 88 102
E 69 114 102
E 69 135 94
E 69 137 106
E 69 140 109
E 69 142 104
E 69 146 94
E 69 150 108
E 69 158 95
E 69 160 102
E 70 77 102
E 70 88 97
E 70 96 103
E 70 99 101
E 70 102 105
E 70 109 102
E 70 116 105
E 70 118 102
E 70 119 98
E 70 120 89
E 70 124 102
E 70 128 98
E 70 131 99
E 70 138 89
E 70 150 105
E 70 152 104
E 71 73 105
E 71 78 93
E 71 81 111
E 71 88 103
E 71 92 103
E 71 93 96
E 71 101 102
E 71 104 94
E 71 105 107
E 71 109 97
E 71 119 99
E 71 120 96
E 71 124 104
E 71 129 95
E 71 131 98
E 71 136 100
E 71 138 101
E 71 141 104
E 71 143 99
E 71 145 102
E 71 152 88
E 71 155 103
E 72 75 97
E 72 78 104
E 72 79 102
E 72 82 113
E 72 84 98
E 72 88 98
E 72 97 102
E 72 101 107
E 72 116 97
E 72 120 98
E 72 136 101
E 72 140 95
E 72 141 103
E 72 145 98
E 72 149 102
E 72 152 106
E 72 154 101
E 72 155 112
E 72 157 100
E 73 75 103
E 73 85 93
E 73 87 96
E 73 95 101
E 73 100 101
E 73 103 92
E 73 104 96
E 73 105 97
E 73 109 99
E 73 113 92
E 73 115 97
E 73 116 100
E 73 117 94
E 73 120 108
E 73 124 103
E 73 127 97
E 73 128 105
E 73 130 104
E 73 131 106
E 73 134 93
E 73 136 103
E 73 146 103
E 73 148 98
E 73 150 90
E 73 160 103
E 74 76 104
E 74 83 110
E 74 84 117
E 74 85 97
E 74 91 99
E 74 107 103
E 74 113 103
E 74 116 98
E 74 120 103
E 74 121 101
E 74 122 99
E 74 132 106
E 74 144 103
E 74 146 103
E 74 147 98
E 74 150 102
E 74 153 102
E 75 80 104
E 75 89 101
E 75 97 96
E 75 106 99
E 75 115 102
E 75 124 105
E 75 126 101
E 75 130 93
E 75 131 95
E 75 136 106
E 75 137 101
E 75 146 93
E 75 147 94
E 75 153 90
E 75 160 100
E 76 77 95
E 76 85 102
E 76 90 87
E 76 93 93
E 76 95 103
E 76 96 100
E 76 104 93
E 76 105 98
E 76 114 105
E 76 119 93
E 76 120 94
E 76 133 99
E 76 136 103
E 76 141 94
E 76 144 94
E 77 78 94
E 77 83 103
E 77 86 99
E 77 93 106
E 77 100 99
E 77 102 93
E 77 105 94
E 77 115 91
E 77 130 100
E 77 132 90
E 77 150 91
E 77 156 101
E 77 158 101
E 78 83 95
E 78 90 94
E 78 95 102
E 78 96 104
E 78 100 91
E 78 102 101
E 78 104 105
E 78 105 101
E 78 107 104
E 78 109 100
E 78 115 98
E 78 116 102
E 78 118 104
E 78 119 95
E 78 127 105
E 78 132 99
E 78 143 86
E 78 146 104
E 78 151 97
E 79 86 107
E 79 87 94
E 79 94 99
E 79 98 93
E 79 99 101
E 79 101 107
E 79 103 103
E 79 108 105
E 79 110 112
E 79 111 90
E 79 117 101
E 79 118 102
E 79 124 101
E 79 125 99
E 79 148 104
E 79 151 104
E 79 152 98
E 79 153 91
E 79 155 96
E 79 157 99
E 79 159 109
E 80 82 99
E 80 88 109
E 80 92 106
E 80 100 100
E 80 110 99
E 80 112 95
E 80 114 102
E 80 118 92
E 80 124 104
E 80 136 97
E 80 138 102
E 80 147 98
E 80 155 106
E 80 158 102
E 80 160 95
E 81 94 94
E 81 114 102
E 81 125 107
E 81 131 107
E 81 136 95
E 81 140 98
E 81 145 98
E 81 149 93
E 81 150 96
E 81 152 109
E 81 156 96
E 82 92 98
E 82 96 95
E 82 99 106
E 82 103 95
E 82 105 94
E 82 106 98
E 82 111 86
E 82 113 104
E 82 115 98
E 82 117 102
E 82 121 97
E 82 122 97
E 82 127 109
E 82 128 104
E 82 129 102
E 82 141 94
E 82 145 106
E 82 148 102
E 82 150 93
E 82 151 103
E 82 153 96
E 82 158 104
E 82 159 99
E 83 88 100
E 83 92 103
E 83 93 100
E 83 100 99
E 83 101 100
E 83 106 94
E 83 111 100
E 83 115 91
E 83 118 85
E 83 122 104
E 83 126 101
E 83 128 98
E 83 158 93
E 84 86 98
E 84 87 106
E 84 91 99
E 84 96 95
E 84 103 98
E 84 104 107
E 84 107 96
E 84 111 98
E 84 114 108
E 84 118 96
E 84 120 101
E 84 126 95
E 84 131 101
E 84 133 99
E 84 142 90
E 84 144 102
E 84 150 97
E 84 156 101
E 85 101 95
E 85 108 102
E 85 109 100
E 85 111 106
E 85 117 99
E 85 122 100
E 85 129 102
E 85 134 95
E 85 135 107
E 85 148 101
E 85 149 96
E 85 151 100
E 85 158 94
E 86 90 101
E 86 95 102
E 86 101 95
E 86 103 98
E 86 108 96
E 86 111 96
E 86 114 91
E 86 115 107
E 86 116 104
E 86 134 100
E 86 140 87
E 86 148 102
E 86 156 92
E 87 91 100
E 87 96 102
E 87 97 93
E 87 99 98
E 87 102 103
E 87 106 99
E 87 116 99
E 87 118 100
E 87 119 104
E 87 127 98
E 87 129 101
E 87 131 103
E 87 133 90
E 87 136 97
E 87 138 100
E 87 141 94
E 87 142 96
E 87 146 97
E 87 148 103
E 87 155 95
E 87 157 99
E 87 160 93
E 88 94 96
E 88 111 98
E 88 114 92
E 88 118 95
E 88 121 107
E 88 123 101
E 88 125 107
E 88 131 103
E 88 136 105
E 88 140 109
E 88 146 90
E 88 152 113
E 88 156 103
E 89 93 98
E 89 98 95
E 89 99 101
E 89 106 104
E 89 108 96
E 89 110 99
E 89 113 101
E 89 118 100
E 89 127 102
E 89 129 102
E 89 130 101
E 89 132 99
E 89 136 96
E 89 140 103
E 89 144 98
E 89 146 97
E 89 149 93
E 89 150 93
E 90 92 100
E 90 93 94
E 90 96 96
E 90 98 96
E 90 104 103
E 90 105 91
E 90 121 97
E 90 124 103
E 90 126 108
E 90 132 106
E 90 146 94
E 91 93 101
E 91 96 101
E 91 115 101
E 91 116 101
E 91 117 104
E 91 122 101
E 91 132 103
E 91 133 94
E 91 136 98
E 91 137 106
E 91 138 99
E 91 146 101
E 91 149 91
E 91 153 105
E 91 160 103
E 92 97 94
E 92 99 96
E 92 101 103
E 92 103 105
E 92 104 100
E 92 108 88
E 92 115 93
E 92 133 102
E 92 137 94
E 92 139 105
E 92 141 107
E 92 149 107
E 92 152 102
E 92 158 95
E 93 96 101
E 93 97 101
E 93 98 98
E 93 99 110
E 93 103 102
E 93 107 103
E 93 109 100
E 93 120 92
E 93 123 107
E 93 125 102
E 93 127 99
E 93 128 113
E 93 130 105
E 93 134 90
E 93 139 103
E 93 145 101
E 93 146 96
E 93 150 105
E 94 100 93
E 94 101 96
E 94 108 97
E 94 113 99
E 94 114 98
E 94 122 109
E 94 124 102
E 94 128 104
E 94 137 100
E 94 139 106
E 94 140 104
E 94 145 100
E 94 146 100
E 94 154 100
E 95 111 103
E 95 124 99
E 95 125 95
E 95 126 103
E 95 131 98
E 95 132 100
E 95 135 99
E 95 136 99
E 95 139 109
E 95 144 98
E 95 149 102
E 95 151 114
E 95 154 99
E 95 160 99
E 96 101 97
E 96 106 100
E 96 114 108
E 96 118 103
E 96 129 98
E 96 133 98
E 96 135 103
E 96 142 93
E 96 143 106
E 96 153 100
E 96 158 95
E 96 159 92
E 97 99 102
E 97 100 98
E 97 101 100
E 97 110 99
E 97 112 93
E 97 123 91
E 97 130 106
E 97 134 104
E 97 135 94
E 97 138 91
E 97 140 90
E 97 144 104
E 97 146 103
E 97 148 97
E 97 155 98
E 98 101 92
E 98 104 95
E 98 114 93
E 98 126 102
E 98 127 99
E 98 130 102
E 98 134 99
E 98 139 92
E 98 148 103
E 98 154 100
E 99 114 98
E 99 115 105
E 99 116 95
E 99 120 106
E 99 122 102
E 99 138 97
E 99 139 92
E 99 145 98
E 99 148 104
E 99 150 101
E 99 159 91
E 100 103 98
E 100 105 102
E 100 112 102
E 100 114 98
E 100 116 93
E 100 117 106
E 100 119 108
E 100 124 93
E 100 127 92
E 100 129 97
E 100 136 104
E 100 138 94
E 100 150 111
E 100 157 102
E 101 102 105
E 101 108 101
E 101 109 101
E 101 117 98
E 101 120 105
E 101 127 95
E 101 129 98
E 101 130 98
E 101 134 103
E 101 140 95
E 101 141 103
E 101 151 91
E 101 156 96
E 102 105 91
E 102 107 97
E 102 108 97
E 102 120 98
E 102 127 93
E 102 137 103
E 102 153 105
E 102 159 98
E 102 160 98
E 103 105 117
E 103 106 96
E 103 115 91
E 103 116 96
E 103 119 98
E 103 121 98
E 103 133 97
E 103 136 102
E 103 140 106
E 103 143 98
E 103 156 102
E 104 110 109
E 104 114 105
E 104 118 100
E 104 119 94
E 104 131 101
E 104 135 99
E 104 152 99
E 104 155 106
E 104 156 109
E 105 108 103
E 105 111 95
E 105 115 102
E 105 119 100
E 105 120 96
E 105 130 96
E 105 131 96
E 105 132 95
E 105 137 101
E 105 147 109
E 105 151 102
E 106 109 100
E 106 120 104
E 106 121 111
E 106 122 98
E 106 128 92
E 106 130 97
E 106 131 104
E 106 138 107
E 106 141 93
E 106 146 100
E 106 157 96
E 106 159 106
E 107 113 92
E 107 123 101
E 107 128 85
E 107 136 109
E 107 149 93
E 107 154 89
E 108 119 101
E 108 131 92
E 108 135 106
E 108 137 98
E 108 142 95
E 108 146 94
E 108 147 104
E 109 120 106
E 109 125 103
E 109 126 96
E 109 136 101
E 109 146 98
E 109 148 101
E 109 155 94
E 110 114 95
E 110 120 99
E 110 125 98
E 110 132 98
E 110 134 108
E 110 137 97
E 110 139 97
E 110 140 92
E 110 145 95
E 110 150 98
E 110 156 104
E 110 157 95
E 110 158 102
E 110 160 92
E 111 127 93
E 111 129 100
E 111 131 107
E 111 136 103
E 111 140 101
E 111 147 99
E 111 149 93
E 111 156 99
E 112 116 97
E 112 122 98
E 112 133 95
E 112 136 104
E 112 139 97
E 112 141 110
E 112 146 108
E 113 115 99
E 113 116 100
E 113 120 96
E 113 124 99
E 113 126 100
E 113 140 99
E 113 155 104
E 113 158 102
E 113 159 91
E 114 115 101
E 114 123 100
E 114 128 100
E 114 130 106
E 114 139 98
E 114 140 94
E 114 154 99
E 114 160 103
E 115 120 103
E 115 125 101
E 115 129 105
E 115 130 96
E 115 131 103
E 115 132 100
E 115 134 97
E 115 136 99
E 115 139 96
E 115 146 107
E 115 150 100
E 115 153 101
E 115 156 107
E 116 119 100
E 116 121 95
E 116 124 110
E 116 125 95
E 116 129 106
E 116 144 89
E 116 157 100
E 116 158 106
E 117 125 99
E 117 134 98
E 117 146 102
E 117 152 96
E 118 119 94
E 118 126 100
E 118 127 100
E 118 145 100
E 118 146 89
E 118 147 100
E 118 151 94
E 118 152 93
E 118 153 88
E 119 122 97
E 119 126 99
E 119 127 105
E 119 130 102
E 119 132 101
E 119 137 102
E 119 150 95
E 119 151 95
E 119 156 108
E 119 159 94
E 120 122 103
E 120 128 100
E 120 136 103
E 120 137 96
E 120 142 94
E 120 147 95
E 120 160 91
E 121 125 93
E 121 131 99
E 121 135 101
E 121 139 98
E 121 140 102
E 121 145 95
E 121 151 87
E 121 160 94
E 122 127 106
E 122 128 110
E 122 131 104
E 122 139 100
E 122 144 99
E 122 146 97
E 122 150 87
E 122 153 102
E 122 158 102
E 123 125 106
E 123 134 108
E 123 135 103
E 123 138 113
E 123 141 99
E 123 144 97
E 123 151 98
E 123 153 97
E 123 158 90
E 124 125 101
E 124 127 103
E 124 131 90
E 124 136 87
E 124 143 87
E 124 144 96
E 125 126 96
E 125 128 92
E 125 135 102
E 125 138 103
E 125 140 105
E 125 141 104
E 125 143 97
E 125 144 97
E 125 147 92
E 125 160 99
E 126 127 96
E 126 129 106
E 126 142 93
E 126 147 102
E 126 151 101
E 126 152 99
E 127 129 104
E 127 131 93
E 127 132 103
E 127 138 101
E 127 139 87
E 127 149 99
E 127 154 93
E 127 158 95
E 128 136 89
E 128 138 99
E 128 140 95
E 128 143 105
E 128 151 106
E 128 152 99
E 128 157 107
E 129 133 102
E 129 139 90
E 129 144 93
E 129 154 91
E 130 132 97
E 130 135 110
E 130 137 96
E 130 146 107
E 130 147 103
E 130 148 100
E 130 153 104
E 131 139 109
E 131 141 92
E 131 144 97
E 131 153 89
E 131 155 101
E 131 159 107
E 132 133 96
E 132 136 107
E 132 139 105
E 132 144 100
E 132 153 98
E 132 156 93
E 133 134 95
E 133 136 93
E 133 145 96
E 133 149 104
E 134 136 102
E 134 153 102
E 135 148 100
E 136 143 105
E 136 144 97
E 136 145 101
E 136 146 100
E 136 148 99
E 136 154 101
E 136 158 104
E 136 159 105
E 137 152 107
E 137 158 101
E 138 143 106
E 138 154 103
E 139 140 101
E 139 144 101
E 139 148 100
E 139 152 103
E 139 153 91
E 139 157 99
E 140 147 98
E 140 148 96
E 140 152 98
E 140 157 101
E 140 158 92
E 141 144 101
E 141 146 93
E 141 152 95
E 141 159 107
E 142 146 98
E 142 148 106
E 142 149 98
E 142 154 98
E 143 145 97
E 143 151 92
E 143 152 101
E 143 156 98
E 143 158 98
E 144 147 94
E 144 154 99
E 145 147 92
E 145 150 102
E 145 158 101
E 145 160 104
E 146 150 105
E 146 151 100
E 146 160 106
E 148 155 92
E 149 154 100
E 150 151 94
E 150 154 105
E 151 153 99
E 154 156 98
E 154 160 101
E 155 159 105
E 155 160 100
E 156 157 94
E 156 160 103
E 158 159 95
END

SECTION Terminals
Terminals 12
T 1
T 2
T 3
T 4
T 5
T 6
T 7
T 8
T 9
T 10
T 11
T 12
END

EOF
